p cnf 28 71
a 8 7 0
e 1 2 3 4 5 6 9 10 11 12 13 14 15 16 17 18 19 20 21 22 23 24 25 26 27 28 0
-4 2 0
-4 3 0
-2 -3 4 0
5 1 0
5 -4 0
-1 4 -5 0
-6 -3 0
-6 1 0
3 -1 6 0
6 7 -8 0
-6 -7 -8 0
6 -7 8 0
-6 7 8 0
5 8 -9 0
-5 -8 -9 0
5 -8 9 0
-5 8 9 0
11 -2 0
11 10 0
2 -10 -11 0
-12 -11 0
-12 1 0
11 -1 12 0
14 -13 0
14 10 0
13 -10 -14 0
15 -12 0
15 14 0
12 -14 -15 0
16 -9 0
16 -15 0
9 15 -16 0
-6 -11 -17 0
6 11 -17 0
-6 11 17 0
6 -11 17 0
-18 6 0
-18 2 0
-6 -2 18 0
-19 -2 0
-19 -18 0
2 18 19 0
-19 3 -20 0
19 -3 -20 0
-19 -3 20 0
19 3 20 0
21 17 0
21 20 0
-17 -20 -21 0
22 -17 0
22 -21 0
17 21 -22 0
24 -22 0
24 -23 0
22 23 -24 0
26 -25 0
26 25 0
-27 24 0
-27 26 0
-24 -26 27 0
16 27 -28 0
-16 -27 -28 0
16 -27 28 0
-16 27 28 0
6 27 -5 0
-19 20 16 -28 -27 23 0
-28 17 -14 8 0
-23 18 -16 -27 -21 0
-6 -12 20 0
21 -14 28 4 3 0
28 0
